************************************************************************
file with basedata            : md333_.bas
initial value random generator: 1670268929
************************************************************************
projects                      :  1
jobs (incl. supersource/sink ):  22
horizon                       :  153
RESOURCES
  - renewable                 :  2   R
  - nonrenewable              :  2   N
  - doubly constrained        :  0   D
************************************************************************
PROJECT INFORMATION:
pronr.  #jobs rel.date duedate tardcost  MPM-Time
    1     20      0       24        4       24
************************************************************************
PRECEDENCE RELATIONS:
jobnr.    #modes  #successors   successors
   1        1          3           2   3   4
   2        3          3           7   8   9
   3        3          2           6   9
   4        3          3           5   8  12
   5        3          2          11  19
   6        3          3          10  11  12
   7        3          2          11  19
   8        3          3          15  16  21
   9        3          3          19  20  21
  10        3          1          20
  11        3          2          13  16
  12        3          2          13  17
  13        3          2          14  15
  14        3          2          18  21
  15        3          1          18
  16        3          1          17
  17        3          1          18
  18        3          1          20
  19        3          1          22
  20        3          1          22
  21        3          1          22
  22        1          0        
************************************************************************
REQUESTS/DURATIONS:
jobnr. mode duration  R 1  R 2  N 1  N 2
------------------------------------------------------------------------
  1      1     0       0    0    0    0
  2      1     3       3    2    0    8
         2     3       2    2    0    9
         3     6       2    1    7    0
  3      1     1       3    8    8    0
         2     5       2    5    0    7
         3     7       2    3    0    3
  4      1     3       6    7    0    7
         2     7       6    6    9    0
         3    10       5    6    0    4
  5      1     5       4    6    0    6
         2     5       4    6    6    0
         3     8       4    4    5    0
  6      1     6       7    5    0    7
         2    10       4    3    0    5
         3    10       5    1    0    6
  7      1     3       5    4    7    0
         2     3       3    5    0    6
         3     9       3    2    8    0
  8      1     5       6    6    4    0
         2     5       9    6    0    6
         3     7       4    6    6    0
  9      1     3      10    7    6    0
         2     3       9    5    0    3
         3     4       7    1    0    3
 10      1     3       7    7    3    0
         2     3       7    6    0    5
         3     9       6    5    0    5
 11      1     1       7    4    5    0
         2     7       5    4    0    3
         3     9       4    3    2    0
 12      1     2       7    7    8    0
         2     2       8    9    0    7
         3     2       8    3    8    0
 13      1     5       3    8    3    0
         2     7       2    8    0    3
         3     8       2    7    2    0
 14      1     3       5    7    5    0
         2     4       4    3    0    7
         3     4       2    3    2    0
 15      1     1       6    4    5    0
         2     6       6    4    0    4
         3     7       6    4    0    2
 16      1     6       8    8    3    0
         2     8       6    7    0    8
         3    10       4    7    3    0
 17      1     2       8    3    7    0
         2     8       6    3    7    0
         3     9       5    2    0    1
 18      1     2       9    6    0    9
         2     2       9    6    4    0
         3     9       8    4    0    9
 19      1     7       2    9    0    9
         2     7       2    9    9    0
         3     9       2    6    0    7
 20      1     5       8    8    0    9
         2     6       5    7    0    6
         3     7       4    5    2    0
 21      1     4       4    5    0    7
         2     6       3    4   10    0
         3     9       2    4    7    0
 22      1     0       0    0    0    0
************************************************************************
RESOURCEAVAILABILITIES:
  R 1  R 2  N 1  N 2
   15   13   57   64
************************************************************************
MAXIMAL LAGS:
from  to  type  delay
    1   22   ES      0
    1    2   ES      0
    2   22   ES      0
    1    3   ES      0
    3   22   ES      0
    1    4   ES      0
    4   22   ES      0
    1    5   ES      0
    5   22   ES      0
    1    6   ES      0
    6   22   ES      0
    1    7   ES      0
    7   22   ES      0
    1    8   ES      0
    8   22   ES      0
    1    9   ES      0
    9   22   ES      0
    1   10   ES      0
   10   22   ES      0
    1   11   ES      0
   11   22   ES      0
    1   12   ES      0
   12   22   ES      0
    1   13   ES      0
   13   22   ES      0
    1   14   ES      0
   14   22   ES      0
    1   15   ES      0
   15   22   ES      0
    1   16   ES      0
   16   22   ES      0
    1   17   ES      0
   17   22   ES      0
    1   18   ES      0
   18   22   ES      0
    1   19   ES      0
   19   22   ES      0
    1   20   ES      0
   20   22   ES      0
    1   21   ES      0
   21   22   ES      0
    1   22   ES      0
    2    7   SS      9
    2    7   SE      8
    2    7   ES    -12
    2    7   EE     -3
    2    8   SS      1
    2    8   SE      9
    2    8   ES     -9
    2    8   EE      9
    2    9   SS      4
    2    9   SE     -4
    2    9   ES      7
    2    9   EE      7
    3    6   SS     10
    3    6   SE     -8
    3    6   ES      1
    3    6   EE     -9
    3    9   SS      4
    3    9   SE     11
    3    9   ES      7
    3    9   EE     -9
    4    5   SS     -3
    4    5   SE     -9
    4    5   ES     -9
    4    5   EE      3
    4    8   SS     -6
    4    8   SE      7
    4    8   ES     -6
    4    8   EE     12
    4   12   SS     -4
    4   12   SE      4
    4   12   ES     -6
    4   12   EE     -1
    5   11   SS     10
    5   11   SE      1
    5   11   ES     -3
    5   11   EE     -7
    5   19   SS    -11
    5   19   SE      5
    5   19   ES      3
    5   19   EE     -6
    6   10   SS     10
    6   10   SE      3
    6   10   ES     -2
    6   10   EE     -5
    6   11   SS    -12
    6   11   SE    -12
    6   11   ES      9
    6   11   EE    -10
    6   12   SS     -9
    6   12   SE      6
    6   12   ES      9
    6   12   EE      3
    7   11   SS     -8
    7   11   SE    -10
    7   11   ES     12
    7   11   EE      4
    7   19   SS    -10
    7   19   SE     11
    7   19   ES     11
    7   19   EE     -9
    8   15   SS     -4
    8   15   SE      8
    8   15   ES     -5
    8   15   EE      2
    8   16   SS     -3
    8   16   SE     -4
    8   16   ES      2
    8   16   EE    -11
    8   21   SS     -9
    8   21   SE     -7
    8   21   ES    -11
    8   21   EE     -3
    9   19   SS     -1
    9   19   SE      9
    9   19   ES     -2
    9   19   EE      1
    9   20   SS     11
    9   20   SE     -9
    9   20   ES     -9
    9   20   EE     12
    9   21   SS    -11
    9   21   SE    -12
    9   21   ES     -8
    9   21   EE      9
   10   20   SS      8
   10   20   SE     -7
   10   20   ES     -2
   10   20   EE     -1
   11   13   SS      2
   11   13   SE      7
   11   13   ES     -4
   11   13   EE     11
   11   16   SS    -10
   11   16   SE     -1
   11   16   ES     -2
   11   16   EE     -7
   12   13   SS     -9
   12   13   SE      0
   13   12   SE      0
   12   13   ES      0
   12   13   EE      2
   12   17   SS     -4
   12   17   SE      0
   12   17   ES     10
   12   17   EE      3
   13   14   SS      1
   13   14   SE      8
   13   14   ES     -7
   13   14   EE     -9
   13   15   SS     -8
   13   15   SE     10
   13   15   ES     11
   13   15   EE    -11
   14   18   SS     -7
   14   18   SE     -9
   14   18   ES      1
   14   18   EE      6
   14   21   SS      3
   14   21   SE      6
   14   21   ES      9
   14   21   EE      2
   15   18   SS     -7
   15   18   SE      7
   15   18   ES      0
   15   18   EE     12
   16   17   SS     -1
   16   17   SE      7
   16   17   ES    -12
   16   17   EE      9
   17   18   SS     11
   17   18   SE     -8
   17   18   ES      3
   17   18   EE      3
   18   20   SS     -9
   18   20   SE      1
   18   20   ES      2
   18   20   EE    -11
************************************************************************
